* ENCODING=ISO-8859-1
NAME          CPLEX
ROWS
 N  obj1    
 G  c1      
 G  c2      
 G  c3      
 G  c4      
 G  c5      
 G  c6      
 G  c7      
 G  c8      
 G  c9      
 G  c10     
 G  c11     
 G  c12     
 G  c13     
 G  c14     
 G  c15     
 G  c16     
 G  c17     
 G  c18     
 G  c19     
 G  c20     
 G  c21     
 G  c22     
 G  c23     
 G  c24     
 G  c25     
 G  c26     
 G  c27     
 G  c28     
 G  c29     
 G  c30     
 G  c31     
 G  c32     
 G  c33     
 G  c34     
 G  c35     
 G  c36     
 G  c37     
 G  c38     
 G  c39     
 G  c40     
 G  c41     
 G  c42     
 G  c43     
 G  c44     
 G  c45     
 G  c46     
 G  c47     
 G  c48     
 G  c49     
 G  c50     
COLUMNS
    MARK0000  'MARKER'                 'INTORG'
    x1        obj1                            1
    x1        c18                           930
    x1        c22                           112
    x1        c27                           404
    x1        c39                           372
    x1        c41                           360
    x2        obj1                            1
    x2        c28                           282
    x2        c37                           717
    x2        c41                           474
    x2        c42                           903
    x3        obj1                            1
    x3        c4                            616
    x3        c14                           550
    x3        c17                           786
    x3        c22                           736
    x3        c25                           160
    x3        c29                           342
    x3        c31                           520
    x3        c39                           823
    x3        c47                           703
    x4        obj1                            1
    x4        c18                           543
    x4        c34                           490
    x4        c49                           579
    x5        obj1                            1
    x5        c8                            182
    x5        c21                           304
    x5        c44                           199
    x5        c47                           429
    x6        obj1                            1
    x6        c19                           764
    x6        c29                           521
    x6        c31                           337
    x7        obj1                            1
    x7        c3                            795
    x7        c21                           156
    x7        c24                           896
    x7        c26                           471
    x7        c33                           953
    x7        c50                           824
    x8        obj1                            1
    x8        c5                            544
    x8        c6                            877
    x8        c10                           451
    x8        c21                           942
    x8        c27                           367
    x9        obj1                            1
    x9        c7                            687
    x9        c23                           433
    x9        c48                           238
    x10       obj1                            1
    x10       c2                            759
    x10       c3                            709
    x10       c4                            115
    x10       c8                            931
    x10       c13                           176
    x10       c36                           588
    x10       c40                           709
    x10       c43                           816
    x10       c48                           748
    x10       c50                           788
    x11       obj1                            1
    x11       c15                           463
    x11       c22                           795
    x11       c26                           753
    x11       c31                           387
    x11       c32                           121
    x11       c36                           925
    x11       c38                           537
    x11       c46                           824
    x12       obj1                            1
    x12       c10                           820
    x12       c31                           535
    x12       c46                           740
    x12       c47                           354
    x13       obj1                            1
    x13       c10                           935
    x13       c11                           597
    x13       c24                           743
    x13       c30                           282
    x13       c36                           437
    x14       obj1                            1
    x14       c1                            110
    x14       c2                            630
    x14       c20                           851
    x14       c48                           588
    x15       obj1                            1
    x15       c2                            705
    x15       c12                           276
    x15       c24                           694
    x16       obj1                            1
    x16       c8                            554
    x16       c10                           242
    x16       c29                           150
    x16       c41                           168
    x16       c45                           199
    x16       c46                           198
    x16       c49                           260
    x16       c50                           638
    x17       obj1                            1
    x17       c16                           184
    x17       c26                           610
    x17       c29                           401
    x17       c36                           734
    x17       c42                           836
    x17       c44                           258
    x17       c50                           651
    x18       obj1                            1
    x18       c9                            874
    x18       c12                           179
    x18       c18                           138
    x18       c38                           831
    x18       c49                           809
    x19       obj1                            1
    x19       c2                            574
    x19       c27                           317
    x19       c39                           730
    x20       obj1                            1
    x20       c4                            229
    x20       c5                            394
    x20       c12                           294
    x20       c21                           847
    x20       c24                           623
    x20       c36                           763
    x20       c38                           660
    x21       obj1                            1
    x21       c11                           858
    x21       c27                           322
    x21       c33                           664
    x21       c41                           316
    x22       obj1                            1
    x22       c5                            261
    x22       c23                           163
    x23       obj1                            1
    x23       c14                           179
    x23       c19                           128
    x23       c20                           689
    x23       c21                           175
    x23       c34                           548
    x23       c35                           315
    x23       c36                           113
    x23       c39                           151
    x23       c48                           679
    x24       obj1                            1
    x24       c1                            822
    x24       c23                           594
    x24       c26                           869
    x25       obj1                            1
    x25       c14                           508
    x26       obj1                            1
    x26       c8                            803
    x26       c9                            798
    x26       c11                           960
    x26       c15                           511
    x26       c21                           745
    x26       c47                           684
    x27       obj1                            1
    x27       c26                           901
    x27       c30                           546
    x28       obj1                            1
    x28       c6                            401
    x28       c10                           746
    x28       c16                           999
    x28       c28                           123
    x28       c31                           474
    x29       obj1                            1
    x29       c7                            321
    x29       c9                            495
    x29       c41                           833
    x30       obj1                            1
    x30       c11                           512
    x30       c20                           388
    x30       c37                           436
    x30       c42                           437
    x31       obj1                            1
    x31       c3                            792
    x31       c15                           869
    x31       c29                           730
    x31       c42                           604
    x31       c47                           811
    x32       obj1                            1
    x32       c3                            306
    x32       c12                           134
    x32       c17                           610
    x32       c41                           833
    x33       obj1                            1
    x33       c1                            451
    x33       c18                           699
    x33       c35                           587
    x33       c39                           573
    x34       obj1                            1
    x34       c11                           742
    x34       c24                           121
    x34       c25                           314
    x34       c39                           390
    x35       obj1                            1
    x35       c9                            372
    x35       c14                           636
    x35       c31                           445
    x35       c40                           585
    x35       c43                           340
    x35       c46                           872
    x36       obj1                            1
    x36       c2                            289
    x36       c4                            503
    x37       obj1                            1
    x37       c1                            451
    x37       c24                           152
    x37       c36                           532
    x37       c38                           377
    x37       c43                           247
    x38       obj1                            1
    x38       c13                           706
    x38       c25                           742
    x38       c28                           861
    x38       c40                           558
    x38       c45                           351
    x39       obj1                            1
    x39       c3                            866
    x39       c4                            907
    x39       c14                           551
    x39       c50                           838
    x40       obj1                            1
    x40       c20                           756
    x40       c25                           805
    x40       c28                           350
    x40       c30                           422
    x40       c38                           834
    x40       c46                           673
    x41       obj1                            1
    x41       c13                           418
    x41       c17                           835
    x41       c18                           318
    x41       c35                           546
    x42       obj1                            1
    x42       c4                            434
    x42       c7                            186
    x42       c8                            114
    x42       c11                           866
    x42       c13                           899
    x42       c14                           309
    x42       c24                           901
    x42       c30                           282
    x43       obj1                            1
    x43       c5                            273
    x43       c29                           584
    x44       obj1                            1
    x44       c4                            488
    x44       c6                            296
    x44       c9                            712
    x44       c11                           193
    x44       c15                           658
    x44       c21                           452
    x44       c37                           493
    x44       c41                           347
    x44       c43                           287
    x45       obj1                            1
    x45       c1                            214
    x45       c5                            771
    x45       c12                           112
    x45       c29                           915
    x45       c35                           382
    x45       c42                           836
    x45       c47                           718
    x46       obj1                            1
    x46       c19                           834
    x46       c46                           604
    x47       obj1                            1
    x47       c2                            888
    x47       c14                           467
    x47       c16                           616
    x47       c26                           508
    x47       c32                           960
    x47       c44                           362
    x47       c48                           455
    x47       c50                           931
    x48       obj1                            1
    x48       c8                            515
    x48       c10                           667
    x48       c15                           369
    x48       c33                           259
    x48       c45                           967
    x49       obj1                            1
    x49       c20                           534
    x49       c34                           272
    x49       c43                           435
    x50       obj1                            1
    x50       c1                            274
    x50       c32                           675
    x50       c46                           787
    x50       c47                           312
    x50       c49                           261
    MARK0001  'MARKER'                 'INTEND'
RHS
    rhs       c1                           1161
    rhs       c2                           1923
    rhs       c3                           1734
    rhs       c4                           1646
    rhs       c5                           1122
    rhs       c6                            787
    rhs       c7                            597
    rhs       c8                           1550
    rhs       c9                           1626
    rhs       c10                          1931
    rhs       c11                          2364
    rhs       c12                           498
    rhs       c13                          1100
    rhs       c14                          1600
    rhs       c15                          1435
    rhs       c16                           900
    rhs       c17                          1116
    rhs       c18                          1314
    rhs       c19                           863
    rhs       c20                          1609
    rhs       c21                          1811
    rhs       c22                           822
    rhs       c23                           595
    rhs       c24                          2065
    rhs       c25                          1011
    rhs       c26                          2056
    rhs       c27                           705
    rhs       c28                           808
    rhs       c29                          1822
    rhs       c30                           766
    rhs       c31                          1349
    rhs       c32                           878
    rhs       c33                           938
    rhs       c34                           655
    rhs       c35                           915
    rhs       c36                          2046
    rhs       c37                           823
    rhs       c38                          1620
    rhs       c39                          1520
    rhs       c40                           926
    rhs       c41                          1666
    rhs       c42                          1808
    rhs       c43                          1063
    rhs       c44                           410
    rhs       c45                           759
    rhs       c46                          2349
    rhs       c47                          2006
    rhs       c48                          1354
    rhs       c49                           955
    rhs       c50                          2335
BOUNDS
 LI bnd       x1        0
 LI bnd       x2        0
 LI bnd       x3        0
 LI bnd       x4        0
 LI bnd       x5        0
 LI bnd       x6        0
 LI bnd       x7        0
 LI bnd       x8        0
 LI bnd       x9        0
 LI bnd       x10       0
 LI bnd       x11       0
 LI bnd       x12       0
 LI bnd       x13       0
 LI bnd       x14       0
 LI bnd       x15       0
 LI bnd       x16       0
 LI bnd       x17       0
 LI bnd       x18       0
 LI bnd       x19       0
 LI bnd       x20       0
 LI bnd       x21       0
 LI bnd       x22       0
 LI bnd       x23       0
 LI bnd       x24       0
 LI bnd       x25       0
 LI bnd       x26       0
 LI bnd       x27       0
 LI bnd       x28       0
 LI bnd       x29       0
 LI bnd       x30       0
 LI bnd       x31       0
 LI bnd       x32       0
 LI bnd       x33       0
 LI bnd       x34       0
 LI bnd       x35       0
 LI bnd       x36       0
 LI bnd       x37       0
 LI bnd       x38       0
 LI bnd       x39       0
 LI bnd       x40       0
 LI bnd       x41       0
 LI bnd       x42       0
 LI bnd       x43       0
 LI bnd       x44       0
 LI bnd       x45       0
 LI bnd       x46       0
 LI bnd       x47       0
 LI bnd       x48       0
 LI bnd       x49       0
 LI bnd       x50       0
ENDATA
